c generated by sgen
p cnf 129 268
-2 -3 -4 0
-1 -3 -4 0
-1 -2 -4 0
-1 -2 -3 0
-6 -7 -8 0
-5 -7 -8 0
-5 -6 -8 0
-5 -6 -7 0
-10 -11 -12 0
-9 -11 -12 0
-9 -10 -12 0
-9 -10 -11 0
-14 -15 -16 0
-13 -15 -16 0
-13 -14 -16 0
-13 -14 -15 0
-18 -19 -20 0
-17 -19 -20 0
-17 -18 -20 0
-17 -18 -19 0
-22 -23 -24 0
-21 -23 -24 0
-21 -22 -24 0
-21 -22 -23 0
-26 -27 -28 0
-25 -27 -28 0
-25 -26 -28 0
-25 -26 -27 0
-30 -31 -32 0
-29 -31 -32 0
-29 -30 -32 0
-29 -30 -31 0
-34 -35 -36 0
-33 -35 -36 0
-33 -34 -36 0
-33 -34 -35 0
-38 -39 -40 0
-37 -39 -40 0
-37 -38 -40 0
-37 -38 -39 0
-42 -43 -44 0
-41 -43 -44 0
-41 -42 -44 0
-41 -42 -43 0
-46 -47 -48 0
-45 -47 -48 0
-45 -46 -48 0
-45 -46 -47 0
-50 -51 -52 0
-49 -51 -52 0
-49 -50 -52 0
-49 -50 -51 0
-54 -55 -56 0
-53 -55 -56 0
-53 -54 -56 0
-53 -54 -55 0
-58 -59 -60 0
-57 -59 -60 0
-57 -58 -60 0
-57 -58 -59 0
-62 -63 -64 0
-61 -63 -64 0
-61 -62 -64 0
-61 -62 -63 0
-66 -67 -68 0
-65 -67 -68 0
-65 -66 -68 0
-65 -66 -67 0
-70 -71 -72 0
-69 -71 -72 0
-69 -70 -72 0
-69 -70 -71 0
-74 -75 -76 0
-73 -75 -76 0
-73 -74 -76 0
-73 -74 -75 0
-78 -79 -80 0
-77 -79 -80 0
-77 -78 -80 0
-77 -78 -79 0
-82 -83 -84 0
-81 -83 -84 0
-81 -82 -84 0
-81 -82 -83 0
-86 -87 -88 0
-85 -87 -88 0
-85 -86 -88 0
-85 -86 -87 0
-90 -91 -92 0
-89 -91 -92 0
-89 -90 -92 0
-89 -90 -91 0
-94 -95 -96 0
-93 -95 -96 0
-93 -94 -96 0
-93 -94 -95 0
-98 -99 -100 0
-97 -99 -100 0
-97 -98 -100 0
-97 -98 -99 0
-102 -103 -104 0
-101 -103 -104 0
-101 -102 -104 0
-101 -102 -103 0
-106 -107 -108 0
-105 -107 -108 0
-105 -106 -108 0
-105 -106 -107 0
-110 -111 -112 0
-109 -111 -112 0
-109 -110 -112 0
-109 -110 -111 0
-114 -115 -116 0
-113 -115 -116 0
-113 -114 -116 0
-113 -114 -115 0
-118 -119 -120 0
-117 -119 -120 0
-117 -118 -120 0
-117 -118 -119 0
-122 -123 -124 0
-121 -123 -124 0
-121 -122 -124 0
-121 -122 -123 0
-125 -126 -127 0
-125 -126 -128 0
-125 -126 -129 0
-125 -127 -128 0
-125 -127 -129 0
-125 -128 -129 0
-126 -127 -128 0
-126 -127 -129 0
-126 -128 -129 0
-127 -128 -129 0
10 23 123 0
118 23 123 0
118 10 123 0
118 10 23 0
43 73 99 0
17 73 99 0
17 43 99 0
17 43 73 0
39 114 44 0
65 114 44 0
65 39 44 0
65 39 114 0
101 32 64 0
67 32 64 0
67 101 64 0
67 101 32 0
76 116 111 0
29 116 111 0
29 76 111 0
29 76 116 0
63 19 15 0
122 19 15 0
122 63 15 0
122 63 19 0
41 85 108 0
47 85 108 0
47 41 108 0
47 41 85 0
121 27 102 0
74 27 102 0
74 121 102 0
74 121 27 0
96 83 31 0
54 83 31 0
54 96 31 0
54 96 83 0
106 30 7 0
22 30 7 0
22 106 7 0
22 106 30 0
77 92 51 0
93 92 51 0
93 77 51 0
93 77 92 0
4 58 91 0
16 58 91 0
16 4 91 0
16 4 58 0
72 103 109 0
95 103 109 0
95 72 109 0
95 72 103 0
86 1 59 0
110 1 59 0
110 86 59 0
110 86 1 0
46 56 89 0
18 56 89 0
18 46 89 0
18 46 56 0
21 33 28 0
129 33 28 0
129 21 28 0
129 21 33 0
45 6 100 0
68 6 100 0
68 45 100 0
68 45 6 0
57 61 38 0
12 61 38 0
12 57 38 0
12 57 61 0
88 78 113 0
24 78 113 0
24 88 113 0
24 88 78 0
14 97 69 0
127 97 69 0
127 14 69 0
127 14 97 0
50 70 119 0
20 70 119 0
20 50 119 0
20 50 70 0
5 26 52 0
60 26 52 0
60 5 52 0
60 5 26 0
81 13 80 0
37 13 80 0
37 81 80 0
37 81 13 0
82 104 128 0
48 104 128 0
48 82 128 0
48 82 104 0
62 75 117 0
2 75 117 0
2 62 117 0
2 62 75 0
126 55 115 0
120 55 115 0
120 126 115 0
120 126 55 0
94 42 35 0
11 42 35 0
11 94 35 0
11 94 42 0
125 107 49 0
112 107 49 0
112 125 49 0
112 125 107 0
90 40 36 0
98 40 36 0
98 90 36 0
98 90 40 0
124 79 8 0
34 79 8 0
34 124 8 0
34 124 79 0
9 87 84 0
71 87 84 0
71 9 84 0
71 9 87 0
105 3 25 0
105 3 66 0
105 3 53 0
105 25 66 0
105 25 53 0
105 66 53 0
3 25 66 0
3 25 53 0
3 66 53 0
25 66 53 0
